Instance: E101-08e.dat
Class:  4
  100 --- number of customers (no depot)
   22 --- number of vehicles
  254 --- number of items
Capacity - height - width of vehicles
   200     40     20
Node - x - y - demand
    0    35.0    35.0     0.0
    1    41.0    49.0    10.0
    2    35.0    17.0     7.0
    3    55.0    45.0    13.0
    4    55.0    20.0    19.0
    5    15.0    30.0    26.0
    6    25.0    30.0     3.0
    7    20.0    50.0     5.0
    8    10.0    43.0     9.0
    9    55.0    60.0    16.0
   10    30.0    60.0    16.0
   11    20.0    65.0    12.0
   12    50.0    35.0    19.0
   13    30.0    25.0    23.0
   14    15.0    10.0    20.0
   15    30.0     5.0     8.0
   16    10.0    20.0    19.0
   17     5.0    30.0     2.0
   18    20.0    40.0    12.0
   19    15.0    60.0    17.0
   20    45.0    65.0     9.0
   21    45.0    20.0    11.0
   22    45.0    10.0    18.0
   23    55.0     5.0    29.0
   24    65.0    35.0     3.0
   25    65.0    20.0     6.0
   26    45.0    30.0    17.0
   27    35.0    40.0    16.0
   28    41.0    37.0    16.0
   29    64.0    42.0     9.0
   30    40.0    60.0    21.0
   31    31.0    52.0    27.0
   32    35.0    69.0    23.0
   33    53.0    52.0    11.0
   34    65.0    55.0    14.0
   35    63.0    65.0     8.0
   36     2.0    60.0     5.0
   37    20.0    20.0     8.0
   38     5.0     5.0    16.0
   39    60.0    12.0    31.0
   40    40.0    25.0     9.0
   41    42.0     7.0     5.0
   42    24.0    12.0     5.0
   43    23.0     3.0     7.0
   44    11.0    14.0    18.0
   45     6.0    38.0    16.0
   46     2.0    48.0     1.0
   47     8.0    56.0    27.0
   48    13.0    52.0    36.0
   49     6.0    68.0    30.0
   50    47.0    47.0    13.0
   51    49.0    58.0    10.0
   52    27.0    43.0     9.0
   53    37.0    31.0    14.0
   54    57.0    29.0    18.0
   55    63.0    23.0     2.0
   56    53.0    12.0     6.0
   57    32.0    12.0     7.0
   58    36.0    26.0    18.0
   59    21.0    24.0    28.0
   60    17.0    34.0     3.0
   61    12.0    24.0    13.0
   62    24.0    58.0    19.0
   63    27.0    69.0    10.0
   64    15.0    77.0     9.0
   65    62.0    77.0    20.0
   66    49.0    73.0    25.0
   67    67.0     5.0    25.0
   68    56.0    39.0    36.0
   69    37.0    47.0     6.0
   70    37.0    56.0     5.0
   71    57.0    68.0    15.0
   72    47.0    16.0    25.0
   73    44.0    17.0     9.0
   74    46.0    13.0     8.0
   75    49.0    11.0    18.0
   76    49.0    42.0    13.0
   77    53.0    43.0    14.0
   78    61.0    52.0     3.0
   79    57.0    48.0    23.0
   80    56.0    37.0     6.0
   81    55.0    54.0    26.0
   82    15.0    47.0    16.0
   83    14.0    37.0    11.0
   84    11.0    31.0     7.0
   85    16.0    22.0    41.0
   86     4.0    18.0    35.0
   87    28.0    18.0    26.0
   88    26.0    52.0     9.0
   89    26.0    35.0    15.0
   90    31.0    67.0     3.0
   91    15.0    19.0     1.0
   92    22.0    22.0     2.0
   93    18.0    24.0    22.0
   94    26.0    27.0    27.0
   95    25.0    24.0    20.0
   96    22.0    27.0    11.0
   97    25.0    21.0    12.0
   98    19.0    21.0    10.0
   99    20.0    26.0     9.0
  100    18.0    18.0    17.0
Node - number of items - h - w for each item
    0   0
    1   2    9    8   16    3
    2   3    8    6   32    4   16    4
    3   3    5    5   24    4   13    2
    4   2    7    9   30    4
    5   1    6    4
    6   2    8   12    5   11
    7   3    5    7    6    5    7    4
    8   1    6    7
    9   4    4   12    7   10    8    6   11    5
   10   3    6   10   17    4   22    2
   11   3    8   10   11    7   11    4
   12   3    5   10    7    5   29    3
   13   2    7   10    8    3
   14   1   13    6
   15   2   21    3   19    3
   16   3    7    7   18    3   13    3
   17   4    7   11    7   10   10    5   21    2
   18   4    5   10   12    8    6    4    5    4
   19   4    5   11    4    5   20    4   25    3
   20   3    5    8   23    4   19    4
   21   3   10    7   17    3   18    2
   22   2   10    7    6    5
   23   2    6    8    5    4
   24   1    7   13
   25   4   15    8    6    8   15    5   26    3
   26   2    5   14    7    6
   27   1    6    7
   28   2    6    7   14    6
   29   2    6    6   30    4
   30   1   17    4
   31   3   15    7    5    7    8    3
   32   3    7    7    7    5   28    4
   33   4    6    9    6    5    5    5   27    3
   34   4    7   12    8    5    5    4   12    3
   35   2    4    8   13    3
   36   2   12    4   20    2
   37   4    5    6   14    3   18    2   17    2
   38   2   20    3   13    2
   39   4    5   10   10    5    6    4   11    2
   40   1    5    4
   41   4    5   13    6   12    5   11    4   10
   42   2   22    3   18    3
   43   1   28    3
   44   1    6   13
   45   2    8    6   25    3
   46   3   30    4   27    2   27    2
   47   2    8   12    5    5
   48   2   29    4   19    3
   49   4   24    4    5    4   30    3   15    3
   50   3    7    9    6    8    5    8
   51   1   12    7
   52   2    5   11    4    7
   53   4    6   14    4    5   11    4   22    3
   54   2    7   14    4    8
   55   4    8    6   17    3    9    3   14    2
   56   3    6   11    5    7   10    4
   57   4   12    5    7    4   27    2   26    2
   58   4    4   11   29    4   22    4   17    2
   59   4    7    6   13    4   12    3   18    2
   60   3    7    6   16    4   11    3
   61   2   14    7   13    5
   62   2   16    7   25    4
   63   1    9    5
   64   3   15    5   26    3   23    3
   65   3    7   14    7   12   16    4
   66   2    8   10   31    3
   67   3    6   11    8   10    8    6
   68   1   20    3
   69   4    6    5   14    3   13    3   32    2
   70   4    6    5   32    4   13    4    6    4
   71   1    6   10
   72   3    5    5   26    3   12    3
   73   1   31    4
   74   1   26    3
   75   3    9    6    8    5   14    3
   76   1   27    3
   77   2    8   10   13    5
   78   4    8    8   28    3   12    3   11    3
   79   2   18    3    6    3
   80   1    7    7
   81   3   14    5   18    4    5    4
   82   2   12    6    8    3
   83   2    5   10   27    3
   84   3    5   11    9    4   32    3
   85   3    6   12   20    4   11    3
   86   2    7    5   20    3
   87   2    5    6    8    5
   88   1   13    8
   89   2    5    6   24    4
   90   4    8   14    7    5    6    5   29    3
   91   3    7   14   26    4   20    3
   92   4    4   10    7    7   12    5    5    5
   93   2    4   10   17    4
   94   4    6    7    6    5   11    3   11    2
   95   4    6    7    6    6    7    5   31    3
   96   2   10    5    5    2
   97   2    5   12   15    5
   98   4    5   14    5   13    4   13   14    3
   99   3   31    4   18    3   11    3
  100   1   24    3
